
List of user-set options:

                                    Name   Value                used
                           compl_inf_tol = 1                     yes
                         constr_viol_tol = 1                     yes
                            dual_inf_tol = 1000                  yes
                           linear_solver = ma97                  yes
                              ma86_small = 1e-30                  no
                                  ma86_u = 0.0001                 no
                              ma97_order = best                  yes
                              ma97_small = 1e-30                 yes
                            ma97_switch1 = at_start              yes
                            ma97_switch2 = od_hd_reuse           yes
                                  ma97_u = 1e-06                 yes
                               ma97_umax = 0.5                   yes
                                max_iter = 1000                  yes
                    max_refinement_steps = 20                    yes
                    min_refinement_steps = 5                     yes
                                 mu_init = 1e-06                 yes
           mu_superlinear_decrease_power = 1.25                  yes
                   nlp_scaling_min_value = 1e-08                 yes
                        option_file_name = Preset_Case_202_pf.opt  yes
                             output_file = ./tmp/Preset_Case_202_pf.output  yes
                      print_user_options = yes                   yes
        required_infeasibility_reduction = 1                      no
                                     tol = 1e-08                 yes
                   warm_start_bound_frac = 1e-20                 yes
                   warm_start_bound_push = 1e-20                 yes
                   warm_start_init_point = yes                   yes
              warm_start_mult_bound_push = 1e-20                 yes
                warm_start_mult_init_max = 1e+40                 yes
             warm_start_slack_bound_frac = 1e-20                 yes
             warm_start_slack_bound_push = 1e-20                 yes

******************************************************************************
This program contains Ipopt, a library for large-scale nonlinear optimization.
 Ipopt is released as open source code under the Eclipse Public License (EPL).
         For more information visit http://projects.coin-or.org/Ipopt
******************************************************************************

This is Ipopt version 3.12.10, running with linear solver ma97.

Number of nonzeros in equality constraint Jacobian...:   123443
Number of nonzeros in inequality constraint Jacobian.:      213
Number of nonzeros in Lagrangian Hessian.............:    49069

Total number of variables............................:    31591
                     variables with only lower bounds:    12912
                variables with lower and upper bounds:    15130
                     variables with only upper bounds:        0
Total number of equality constraints.................:    31483
Total number of inequality constraints...............:       25
        inequality constraints with only lower bounds:        4
   inequality constraints with lower and upper bounds:        0
        inequality constraints with only upper bounds:       21

iter    objective    inf_pr   inf_du lg(mu)  ||d||  lg(rg) alpha_du alpha_pr  ls
   0 -5.2930085e+00 4.49e-03 1.02e+00  -6.0 0.00e+00    -  0.00e+00 0.00e+00   0
   1 -5.2926146e+00 8.61e-03 1.02e+00  -6.0 2.55e+05    -  1.33e-04 2.81e-05h  6
   2 -5.2938579e+00 8.62e-03 5.11e+01  -6.0 3.30e+03    -  2.25e-01 1.22e-03h  1
   3 -5.2958831e+00 5.05e-03 4.77e+01  -6.0 4.23e+00  -4.0 1.60e-01 4.14e-01f  1
   4 -5.3010241e+00 3.20e-03 5.16e+01  -6.0 1.24e+01  -4.5 2.09e-01 3.72e-01f  1
   5 -5.3366138e+00 2.65e-01 1.39e+02  -6.0 3.58e+01  -5.0 2.25e-01 8.17e-01f  1
   6 -5.5421261e+00 2.94e+00 7.00e+02  -6.0 1.34e+02  -5.4 3.49e-01 3.02e-01f  1
   7 -5.8553214e+00 1.34e+01 7.11e+03  -6.0 1.32e+02  -5.9 3.76e-01 1.00e+00h  1
   8 -5.8283521e+00 1.07e+01 6.48e+03  -6.0 4.49e+00  -3.7 6.88e-01 2.03e-01h  1
   9 -5.7183094e+00 4.22e-02 1.34e+03  -6.0 2.03e+00  -3.3 6.10e-01 1.00e+00h  1
iter    objective    inf_pr   inf_du lg(mu)  ||d||  lg(rg) alpha_du alpha_pr  ls
  10 -5.7183517e+00 4.14e-02 6.45e+02  -6.0 9.68e-01  -3.7 1.00e+00 1.78e-02h  1
  11 -5.7249848e+00 1.88e-02 8.31e+00  -6.0 2.66e+00  -4.2 1.00e+00 1.00e+00f  1
  12 -5.7298570e+00 2.02e-02 9.42e+01  -6.0 1.22e+01  -4.7 2.68e-01 1.82e-01h  1
  13 -5.7464863e+00 9.25e-02 8.48e+00  -6.0 1.83e+01  -5.2 1.00e+00 1.00e+00h  1
  14 -5.7540728e+00 7.08e-02 8.90e+03  -6.0 4.50e+01  -5.6 4.09e-01 2.54e-01h  1
  15 -5.8145699e+00 1.77e-01 2.43e+04  -6.0 9.69e+01  -6.1 6.63e-01 1.00e+00h  1
  16 -5.8245597e+00 1.56e-01 5.84e+04  -6.0 1.87e+02  -6.6 4.25e-01 1.38e-01h  1
  17 -5.8903668e+00 6.73e-01 1.66e+05  -6.0 3.70e+02  -7.1 9.94e-01 5.09e-01h  1
  18 -5.9572012e+00 1.34e+00 5.06e+04  -6.0 4.31e+02  -7.5 3.70e-01 5.70e-01h  1
  19r-5.9572012e+00 1.34e+00 1.00e+03   0.1 0.00e+00    -  0.00e+00 3.16e-07R  2
iter    objective    inf_pr   inf_du lg(mu)  ||d||  lg(rg) alpha_du alpha_pr  ls
  20r-5.9722930e+00 1.34e+00 1.00e+03   0.1 1.28e+04    -  2.89e-06 1.41e-06f  1
  21 -5.9694679e+00 1.21e+00 7.40e+04  -6.0 3.74e+00    -  1.33e-06 9.87e-02h  1
  22 -5.9633540e+00 9.22e-01 5.65e+04  -6.0 3.36e+00    -  1.41e-01 2.36e-01h  1
  23 -5.9571943e+00 6.34e-01 3.89e+04  -6.0 2.48e+00    -  6.14e-01 3.13e-01h  1
  24 -5.9443968e+00 1.06e-04 2.61e+01  -6.0 1.22e+00    -  7.86e-01 1.00e+00h  1
  25 -5.9471104e+00 1.05e-03 1.71e+01  -6.0 3.05e+00    -  7.62e-01 1.00e+00h  1
  26 -5.9504871e+00 2.58e-03 3.51e+00  -6.0 1.22e+01    -  7.98e-01 1.00e+00h  1
  27 -5.9572816e+00 4.27e-02 6.37e-01  -6.0 4.98e+01    -  9.51e-01 1.00e+00h  1
  28 -5.9857991e+00 1.57e+00 9.43e+00  -6.0 2.57e+02    -  7.98e-01 8.89e-01h  1
  29 -5.9865158e+00 1.42e+00 8.60e+03  -6.0 7.77e+02    -  6.87e-01 9.48e-02h  1
iter    objective    inf_pr   inf_du lg(mu)  ||d||  lg(rg) alpha_du alpha_pr  ls
  30 -6.0014184e+00 1.79e+00 5.31e+03  -6.0 1.30e+03    -  5.99e-01 4.98e-01h  1
  31 -6.0083526e+00 1.02e+00 9.73e+03  -6.0 3.24e+02  -8.0 9.57e-01 6.86e-01h  1
  32 -6.0142362e+00 8.24e-01 9.70e+03  -6.0 2.09e+02  -7.6 5.82e-01 5.07e-01h  1
  33 -6.0300921e+00 1.23e+00 3.54e+03  -6.0 2.95e+02  -8.1 9.88e-01 1.00e+00h  1
  34 -6.0370376e+00 9.65e-01 2.84e+04  -6.0 2.19e+02  -7.6 4.17e-01 3.56e-01h  1
  35 -6.0526775e+00 1.17e+00 1.77e+05  -6.0 2.51e+02  -7.2 1.00e+00 7.11e-01h  1
  36r-6.0526775e+00 1.17e+00 1.00e+03   0.1 0.00e+00  -7.7 0.00e+00 3.91e-07R  2
  37r-6.0748143e+00 1.17e+00 1.00e+03   0.1 1.25e+04    -  5.15e-06 1.58e-06f  1
  38 -6.0743147e+00 1.14e+00 1.14e+03  -6.0 1.00e+01    -  2.20e-02 2.13e-02h  1
  39 -6.0721907e+00 1.04e+00 1.18e+05  -6.0 9.93e+00    -  2.13e-02 9.17e-02h  1
iter    objective    inf_pr   inf_du lg(mu)  ||d||  lg(rg) alpha_du alpha_pr  ls
  40 -6.0693572e+00 8.99e-01 1.03e+05  -6.0 9.14e+00    -  2.81e-01 1.33e-01h  1
  41 -6.0641524e+00 6.50e-01 7.41e+04  -6.0 8.26e+00    -  3.81e-01 2.77e-01h  1
  42 -6.0541976e+00 1.86e-01 2.12e+04  -6.0 6.41e+00    -  7.81e-01 7.15e-01h  1
  43 -6.0506648e+00 1.70e-04 6.76e+00  -6.0 2.38e+00    -  9.53e-01 1.00e+00h  1
  44 -6.0537961e+00 7.54e-02 9.61e+00  -6.0 3.43e+01    -  9.23e-01 1.00e+00h  1
  45 -6.0611742e+00 3.85e-01 1.25e+01  -6.0 4.52e+02    -  3.92e-01 2.32e-01h  1
  46 -6.0618164e+00 1.21e-01 7.74e+03  -6.0 1.62e+02    -  6.05e-01 1.00e+00H  1
  47 -6.0618803e+00 1.04e-01 1.32e+04  -6.0 1.13e+02    -  7.36e-01 1.45e-01h  1
  48 -6.0624904e+00 6.66e-01 4.87e+02  -6.0 1.40e+02  -8.2 8.78e-01 1.00e+00h  1
  49 -6.0624091e+00 5.46e-02 8.84e+00  -6.0 7.10e+01  -7.7 9.81e-01 1.00e+00h  1
iter    objective    inf_pr   inf_du lg(mu)  ||d||  lg(rg) alpha_du alpha_pr  ls
  50 -6.0623879e+00 3.59e-02 4.23e+00  -6.0 4.48e+01  -7.3 6.78e-01 1.00e+00h  1
  51 -6.0624426e+00 8.98e-03 1.35e-01  -6.0 2.23e+01  -6.9 1.00e+00 1.00e+00h  1
  52 -6.0626206e+00 1.34e+00 5.21e+01  -6.0 2.74e+02  -7.4 3.01e-01 1.00e+00h  1
  53 -6.0681909e+00 2.15e-01 2.10e+02  -6.0 1.21e+02  -6.9 6.55e-01 1.00e+00h  1
  54 -6.0968157e+00 1.08e+01 6.00e+03  -6.0 1.69e+03  -7.4 1.43e-01 5.38e-01h  1
  55 -6.0865177e+00 4.95e-01 2.03e+04  -6.0 2.66e+02  -6.1 1.18e-01 1.00e+00h  1
  56 -6.0863174e+00 4.54e-01 1.87e+04  -6.0 3.15e+00  -4.8 3.48e-01 8.18e-02h  1
  57 -6.0852511e+00 2.15e-01 9.55e+03  -6.0 8.82e+00  -5.2 8.76e-01 5.28e-01h  1
  58 -6.0850710e+00 5.14e-02 6.96e+02  -6.0 1.45e+01  -5.7 9.48e-01 1.00e+00h  1
  59 -6.0911841e+00 4.21e-01 5.55e+02  -6.0 3.51e+03    -  5.96e-01 1.30e-01h  1
iter    objective    inf_pr   inf_du lg(mu)  ||d||  lg(rg) alpha_du alpha_pr  ls
  60 -6.0984470e+00 2.25e+00 3.05e+02  -6.0 2.37e+03    -  1.00e+00 2.74e-01f  1
  61 -6.1062731e+00 2.56e+00 2.54e+02  -6.0 1.21e+03    -  2.47e-01 9.51e-01h  1
  62 -6.1044355e+00 1.60e+00 1.57e+02  -6.0 1.35e+02    -  3.76e-01 3.76e-01h  1
  63 -6.1014057e+00 2.16e+00 4.89e+00  -6.0 3.80e+02    -  1.00e+00 1.00e+00h  1
  64 -6.1013363e+00 2.03e-01 3.63e-02  -6.0 1.18e+02    -  1.00e+00 1.00e+00h  1
  65 -6.1013311e+00 2.88e-03 6.73e-04  -6.0 1.40e+01    -  1.00e+00 1.00e+00h  1
  66 -6.1013310e+00 9.34e-06 2.42e-06  -6.0 7.89e-01    -  1.00e+00 1.00e+00h  1
  67 -6.1014018e+00 2.01e-03 5.65e+01  -7.5 3.74e+01    -  9.51e-01 7.55e-01h  1
  68 -6.1014078e+00 4.34e-04 9.09e+00  -7.5 9.47e+00    -  1.00e+00 8.71e-01h  1
  69 -6.1014076e+00 3.73e-06 3.10e-03  -7.5 1.21e+00    -  1.00e+00 1.00e+00h  1
iter    objective    inf_pr   inf_du lg(mu)  ||d||  lg(rg) alpha_du alpha_pr  ls
  70 -6.1014076e+00 2.83e-10 1.08e-09  -7.5 2.20e-04    -  1.00e+00 1.00e+00h  1
  71 -6.1014092e+00 2.68e-06 6.62e-01  -9.0 1.21e+00    -  9.22e-01 8.50e-01h  1
  72 -6.1014095e+00 8.38e-08 2.87e-02  -9.0 1.81e-01    -  9.93e-01 1.00e+00f  1
  73 -6.1014095e+00 4.26e-10 3.19e-08  -9.0 6.54e-05    -  1.00e+00 1.00e+00h  1
  74 -6.1014095e+00 2.85e-10 2.46e-09  -9.0 2.21e-05    -  1.00e+00 1.00e+00h  1

Number of Iterations....: 74

                                   (scaled)                 (unscaled)
Objective...............:  -4.7667261583349125e+00   -6.1014094826686884e+00
Dual infeasibility......:   2.4554476746958733e-09    3.1429730236107180e-09
Constraint violation....:   2.8484046241464278e-10    2.8484046241464278e-10
Complementarity.........:   9.5629129442299302e-10    1.2240528568614311e-09
Overall NLP error.......:   2.4554476746958733e-09    3.1429730236107180e-09


Number of objective function evaluations             = 86
Number of objective gradient evaluations             = 75
Number of equality constraint evaluations            = 86
Number of inequality constraint evaluations          = 86
Number of equality constraint Jacobian evaluations   = 77
Number of inequality constraint Jacobian evaluations = 77
Number of Lagrangian Hessian evaluations             = 74
Total CPU secs in IPOPT (w/o function evaluations)   =    187.466
Total CPU secs in NLP function evaluations           =      2.584

EXIT: Optimal Solution Found.
